10 24
1 2 1
1 3 0
1 4 0
1 5 1
1 6 0
1 7 1
1 8 1
1 9 1
1 10 1
2 3 1
2 4 1
2 5 1
2 6 1
2 7 0
2 8 0
2 9 0
2 10 0
3 4 0
3 5 0
3 6 0
3 7 1
3 8 1
3 9 1
3 10 0
4 5 1
4 6 0
4 7 0
4 8 0
4 9 1
4 10 0
5 6 1
5 7 0
5 8 1
5 9 1
5 10 0
6 7 1
6 8 0
6 9 1
6 10 1
7 8 1
7 9 1
7 10 0
8 9 0
8 10 1
9 10 0
